qe/outputs/qe/qe_queries_cbrdelay/T=5,eliminate=[I_0,I_1,I_2,I_3,I_4,L_1,L_2,L_3,L_4,C].smt2
; benchmark generated from python API
(set-info :status unknown)
(declare-fun S_3 () Real)
(declare-fun L_0 () Real)
(declare-fun A_3 () Real)
(declare-fun S_4 () Real)
(declare-fun A_4 () Real)
(declare-fun S_2 () Real)
(declare-fun B () Real)
(declare-fun A_1 () Real)
(declare-fun S_0 () Real)
(declare-fun A_0 () Real)
(declare-fun A_2 () Real)
(declare-fun S_1 () Real)
(assert
 (let (($x7508 (<= (+ (* (- 1.0) A_4) A_1 (* (- 1.0) B) S_4 (* (- 1.0) S_2)) 0.0)))
 (let (($x34 (>= L_0 0.0)))
 (let (($x707 (>= B 5.0)))
 (let ((?x1279 (* 2.0 S_2)))
 (let ((?x369 (* (- 1.0) S_4)))
 (let ((?x473 (* (- 1.0) B)))
 (let ((?x900 (* (- 1.0) A_0)))
 (let ((?x357 (* (- 1.0) A_2)))
 (let (($x1278 (<= (+ A_3 ?x357 ?x369 S_2) 0.0)))
 (let (($x5026 (<= (+ (* (- (/ 1.0 2.0)) A_1) (* (/ 1.0 2.0) L_0) (* (- (/ 1.0 2.0)) S_4) S_2) 0.0)))
 (let (($x6188 (<= (+ ?x900 (* (- (/ 1.0 2.0)) S_4) (* (/ 3.0 2.0) S_1) L_0) 0.0)))
 (let (($x1400 (<= (+ A_3 ?x357 ?x900 B ?x369 (* 2.0 S_1) L_0) 0.0)))
 (let (($x883 (<= (+ A_3 (* (- 1.0) L_0) ?x369) 0.0)))
 (let (($x86635 (or (not (<= 0.0 (+ (* (- 1.0) A_1) B S_1 L_0))) $x883 $x1400 $x6188 (<= (+ A_2 ?x900 ?x369 S_1) 0.0))))
 (let (($x895 (<= (+ A_1 (* (- 1.0) L_0) (* (- 1.0) S_2)) 0.0)))
 (let (($x47446 (<= (+ (* (- (/ 1.0 2.0)) S_4) (* (/ 1.0 2.0) S_1)) (- 5.0))))
 (let (($x45181 (<= 0.0 (+ (* (- 1.0) A_3) A_1 ?x473 S_4 (* (- 1.0) S_1)))))
 (let (($x37482 (<= (+ A_2 (* (- 1.0) L_0) ?x369) (- 5.0))))
 (let (($x48810 (<= (+ (* (- 1.0) A_1) L_0 S_0 B) (- 5.0))))
 (let (($x47563 (<= (+ (* (- (/ 1.0 3.0)) S_4) (* (/ 1.0 3.0) S_0)) (- 5.0))))
 (let (($x45090 (<= (+ (* (/ 1.0 2.0) A_1) (* (- (/ 1.0 2.0)) L_0) (* (- (/ 1.0 2.0)) S_4)) (- 5.0))))
 (let (($x39008 (or $x1278 (<= (+ ?x357 A_1 ?x473 ?x369 ?x1279 (* (- 1.0) S_1)) 0.0))))
 (let ((?x2245 (* (- 3.0) S_3)))
 (let ((?x1365 (* 3.0 S_4)))
 (let ((?x1103 (* (- 2.0) B)))
 (let ((?x1102 (* 2.0 A_1)))
 (let ((?x2712 (* (- 2.0) A_4)))
 (let (($x7430 (<= (+ (* (- 1.0) A_4) A_2 S_4 (* (- 1.0) S_3)) 0.0)))
 (let (($x48658 (<= (+ A_3 (* (- 1.0) A_1) B ?x369 S_0) (- 5.0))))
 (let (($x47546 (<= (- 5.0) (+ (* (- (/ 1.0 2.0)) A_2) (* (/ 1.0 2.0) L_0) (* (/ 1.0 2.0) S_0)))))
 (let (($x46890 (not (<= (- 5.0) (+ ?x357 A_1)))))
 (let (($x1636 (<= (+ A_1 (* (- 1.0) S_2) ?x473 (* (- 1.0) L_0)) 0.0)))
 (let (($x2853 (<= (+ A_2 (* (- 1.0) A_1) B (* (- 1.0) S_3) S_1) 0.0)))
 (let (($x889 (<= (+ A_2 (* (- 1.0) L_0) (* (- 1.0) S_3)) 0.0)))
 (let (($x85350 (or $x889 $x2853 (<= (+ (* (- 1.0) A_3) L_0 S_4 (* (- 1.0) S_3) S_1) 0.0))))
 (let (($x7207 (<= (+ A_2 (* (- 1.0) A_1) ?x900 B ?x369 (* 2.0 S_1) L_0) 0.0)))
 (let (($x320 (<= 0.0 (+ (* (- 1.0) A_1) B S_1 L_0))))
 (let (($x47111 (<= 0.0 (+ (* (- 1.0) A_3) A_2 S_4 (* (- 1.0) S_2) ?x473))))
 (let ((?x1820 (* (/ 1.0 2.0) S_0)))
 (let ((?x1968 (* (/ 1.0 2.0) S_2)))
 (let ((?x361 (* (- 1.0) A_1)))
 (let (($x16683 (<= (+ A_3 ?x361 B ?x369 ?x1968 ?x1820) 0.0)))
 (let (($x1264 (<= (+ (* (- 2.0) S_4) (* 3.0 S_2) (* (- 1.0) S_1)) 0.0)))
 (let (($x85771 (or $x883 (not $x47111) $x45090 (not (<= 0.0 (+ ?x361 ?x1968 ?x1820 B L_0))) $x47563)))
 (let (($x47636 (<= 0.0 (+ (* (- 1.0) A_3) A_1 (* (/ 1.0 2.0) S_4) (* (- (/ 1.0 2.0)) S_0)))))
 (let (($x39216 (not (<= (- 5.0) (+ (* (- 1.0) A_3) A_2)))))
 (let (($x18865 (<= (+ (* (- 1.0) A_3) A_1 ?x473 S_4 (* (- 1.0) S_3)) 0.0)))
 (let ((?x950 (* (- 1.0) S_0)))
 (let ((?x1253 (* (- 2.0) S_4)))
 (let ((?x1649 (* (- 2.0) L_0)))
 (let ((?x1485 (* 2.0 A_2)))
 (let (($x7005 (<= (+ ?x1485 (* (- 2.0) A_1) (* 2.0 B) ?x1253 (* 3.0 S_1) ?x950) 0.0)))
 (let ((?x1161 (* 3.0 S_1)))
 (let ((?x1051 (* 2.0 B)))
 (let ((?x723 (* (- 2.0) A_2)))
 (let (($x50680 (or $x883 (<= (+ (* 2.0 A_3) ?x723 ?x1051 ?x1253 ?x1161 ?x950) 0.0) (<= (+ ?x369 (* 2.0 S_1) ?x950) 0.0) $x7005 (<= (+ ?x1485 ?x1649 ?x1253 S_1 ?x950) 0.0) $x45181)))
 (let (($x51795 (or $x1636 (<= (+ ?x357 A_1 ?x473 S_3 (* (- 2.0) S_2) S_0) 0.0))))
 (let (($x31283 (<= (+ ?x2712 A_3 A_1 ?x1103 (* 2.0 S_4) (* (- 2.0) S_3)) 0.0)))
 (let (($x29101 (<= (+ (* (- 1.0) A_4) A_3 ?x473 S_4 (* (- 2.0) S_3) S_1) 0.0)))
 (let (($x18919 (not (<= (+ (* (- 2.0) A_1) S_3 S_0 ?x1051 (* 2.0 L_0)) 0.0))))
 (let ((?x3177 (* (/ 1.0 3.0) S_0)))
 (let ((?x380 (* (- 1.0) S_3)))
 (let ((?x2366 (* (/ 2.0 3.0) S_4)))
 (let ((?x3148 (* (- (/ 2.0 3.0)) B)))
 (let ((?x9446 (* (/ 2.0 3.0) A_3)))
 (let ((?x9413 (* (- (/ 2.0 3.0)) A_4)))
 (let (($x9415 (<= (+ ?x9413 ?x9446 ?x3148 ?x2366 ?x380 ?x3177) 0.0)))
 (let ((?x1627 (* (/ 1.0 2.0) S_4)))
 (let ((?x1630 (* (- (/ 1.0 2.0)) A_1)))
 (let ((?x4318 (* (/ 1.0 2.0) A_2)))
 (let ((?x4274 (* (/ 1.0 2.0) A_3)))
 (let (($x83997 (or $x889 (<= (+ (* (- (/ 1.0 2.0)) A_4) ?x4274 ?x4318 ?x1630 ?x1627 ?x380 ?x1820) 0.0) $x9415 $x18919)))
 (let ((?x996 (* (- 2.0) S_3)))
 (let ((?x517 (* (- 1.0) L_0)))
 (let ((?x349 (* (- 1.0) A_4)))
 (let (($x84354 (or $x889 (<= (+ A_2 (* (- 2.0) A_1) L_0 S_0 ?x1051) 0.0) $x9415 (<= (+ ?x349 A_3 A_1 ?x517 ?x473 S_4 ?x996) 0.0))))
 (let (($x1272 (<= (+ (* (- 3.0) S_4) (* 4.0 S_2) ?x950) 0.0)))
 (let (($x9654 (<= (+ (* (- (/ 1.0 2.0)) A_3) A_2 ?x1630 (* (/ 1.0 2.0) B) ?x1627 ?x380 ?x1820) 0.0)))
 (let (($x48429 (<= 0.0 (+ (* (- (/ 1.0 2.0)) A_3) ?x1630 (* (/ 1.0 2.0) B) ?x1627 ?x1820 L_0))))
 (let (($x49989 (or $x889 (<= (+ (* (- 1.0) A_3) A_1 S_4 ?x380) 0.0) (<= (+ (* (- 1.0) A_3) L_0 S_4 (* (- (/ 1.0 2.0)) S_3) ?x1820) 0.0) (not $x48429))))
 (let (($x31569 (or $x895 (<= (+ ?x357 L_0 S_4 (* (- 2.0) S_2) (* 2.0 S_0)) 0.0))))
 (let (($x32794 (<= (+ ?x349 A_3 ?x357 L_0 ?x473 S_4 (* (- 1.0) S_2) S_0) 0.0)))
 (let (($x32682 (or $x895 (<= (+ (* (- 1.0) A_3) L_0 S_4 (* (- 1.0) S_2) S_0) 0.0))))
 (let (($x83401 (or $x1278 (<= (+ ?x357 A_1 ?x473 ?x1253 (* 3.0 S_2) ?x950) 0.0))))
 (let (($x52492 (or (<= (+ (* (- 1.0) A_3) A_2 ?x473 S_4 ?x996 S_1) 0.0) (<= 0.0 (+ ?x357 A_1 S_3 (* (- 1.0) S_1))))))
 (let (($x21724 (<= (+ (* (- 3.0) A_4) (* 3.0 A_1) (* (- 3.0) B) ?x1365 ?x996 ?x950) 0.0)))
 (let (($x49042 (or $x7430 (<= (+ ?x2712 ?x1102 ?x900 ?x1103 (* 2.0 S_4) ?x380 L_0) 0.0))))
 (let (($x9234 (<= (+ ?x349 A_3 ?x473 S_4 (* (- 3.0) S_2) (* 2.0 S_0)) 0.0)))
 (let ((?x391 (* (- 1.0) S_2)))
 (let ((?x1594 (* (- (/ 1.0 2.0)) B)))
 (let ((?x1620 (* (/ 1.0 2.0) A_1)))
 (let ((?x4335 (* (- (/ 1.0 2.0)) A_3)))
 (let (($x21582 (<= (+ ?x2712 ?x1102 ?x1103 (* 2.0 S_4) ?x380 (* (- 1.0) S_1)) 0.0)))
 (let (($x16016 (<= (+ (* (- 1.0) A_3) A_2 ?x473 S_4 (* (- (/ 3.0 2.0)) S_3) ?x1820) 0.0)))
 (let (($x48322 (or $x889 (<= (+ (* (- 1.0) A_3) A_2 A_1 ?x517 ?x473 S_4 ?x996) 0.0) $x16016 (<= 0.0 (+ ?x357 A_1 (* (/ 1.0 2.0) S_3) (* (- (/ 1.0 2.0)) S_0))))))
 (let (($x1291 (<= (+ ?x900 ?x1253 (* 3.0 S_2) L_0) 0.0)))
 (let (($x83963 (or $x889 (<= (+ A_1 ?x517 ?x380) (- 5.0)) (<= (+ (* (- (/ 1.0 2.0)) S_3) ?x1820) (- 5.0)))))
 (let ((?x2561 (* 2.0 S_0)))
 (let ((?x1266 (* (- 3.0) S_2)))
 (let ((?x353 (* (- 1.0) A_3)))
 (let (($x14622 (or $x895 (<= (+ ?x349 A_2 ?x473 S_4 (* (- 2.0) S_2) S_0) 0.0))))
 (let ((?x2118 (* (/ 2.0 3.0) S_0)))
 (let ((?x1757 (* (/ 1.0 3.0) S_4)))
 (let (($x2195 (<= (+ (* (/ 2.0 3.0) A_2) (* (- (/ 2.0 3.0)) A_1) (* (/ 2.0 3.0) B) ?x1757 ?x380 ?x2118) 0.0)))
 (let (($x47389 (or $x889 $x2195 (<= (+ ?x1102 ?x1649 S_4 ?x2245) 0.0) (<= (+ ?x1627 ?x380 ?x1820) 0.0))))
 (let (($x3176 (<= (+ (* (- (/ 1.0 3.0)) A_2) (* (/ 1.0 3.0) A_1) (* (- (/ 1.0 3.0)) B) ?x1757 ?x391 ?x2118) 0.0)))
 (let (($x3818 (<= (+ ?x349 A_3 ?x357 A_1 ?x1103 S_4 (* (- 2.0) S_2) S_0) 0.0)))
 (let (($x96 (>= S_1 S_0)))
 (let (($x99 (>= S_2 S_1)))
 (let (($x102 (>= S_3 S_2)))
 (let (($x105 (>= S_4 S_3)))
 (let (($x107 (>= A_1 A_0)))
 (let (($x108 (>= A_2 A_1)))
 (let (($x109 (>= A_3 A_2)))
 (let (($x110 (>= A_4 A_3)))
 (and $x110 $x109 $x108 $x107 $x105 $x102 $x99 $x96 (or (<= (+ ?x369 S_2) (- 5.0)) $x1278) (or $x1278 $x1291) (or $x895 (<= (+ ?x391 S_0) (- 5.0))) (or (<= (+ ?x380 S_1) (- 5.0)) $x889) (<= (+ ?x357 L_0 S_2) 0.0) (or $x895 (<= (+ (* (/ 1.0 3.0) S_3) ?x391 ?x2118) 0.0)) (<= (+ ?x361 L_0 S_1) 0.0) (or $x1636 $x3818) (or $x895 (<= (+ (* (/ 1.0 4.0) S_4) ?x391 (* (/ 3.0 4.0) S_0)) 0.0)) (or $x895 $x3176) $x47389 (or $x895 (<= (+ ?x4335 ?x4318 ?x1594 (* (/ 1.0 2.0) S_3) ?x391 ?x1820) 0.0)) $x14622 (or $x895 (<= (+ ?x353 A_2 ?x473 S_4 ?x1266 ?x2561) 0.0)) $x83963 (or $x883 $x1291 $x45181 $x47111) (or $x883 $x1291 $x16683 $x47111) (or $x889 (<= (+ ?x900 ?x380 (* 2.0 S_1) L_0) 0.0) $x2853) (or $x889 (<= (+ ?x996 ?x1161 ?x950) 0.0) $x2853) (<= (+ ?x349 A_2 ?x473 S_4 ?x380) 0.0) (<= (+ ?x353 A_1 ?x473 S_3 ?x391) 0.0) $x48322 (or $x7430 $x21582) (or $x1636 (<= (+ ?x4335 ?x1620 ?x1594 ?x1627 ?x391 ?x1820) 0.0)) (or (<= (+ ?x369 S_2) (- 5.0)) $x883 $x45181) (or $x1264 $x1278) (or $x895 $x9234) $x49042 (or $x7430 $x21724) (or $x1272 $x1278) (or $x883 $x889 $x45181 $x47446) $x52492 (<= (+ ?x349 A_1 ?x473 S_4 ?x380) (- 5.0)) $x83401 (or $x883 $x1272 $x45181 $x47111) $x32682 (or $x895 $x32794) $x31569 $x49989 (or $x889 $x9654 $x18865) (or $x7430 $x18865) (or $x883 $x895 $x39216 $x47563 $x48658) (or $x883 $x1272 $x16683 $x47111) (or $x883 $x895 $x45181 $x47546 $x47563) (or $x883 $x37482 $x46890 (not $x47546)) $x84354 $x83997 (or $x889 (<= (+ S_4 ?x2245 (* 2.0 S_1)) 0.0) $x2853) (or $x1636 $x47563 $x48658) (or $x883 $x39216 $x45181 $x47446) (or $x889 $x2853 $x29101) (or $x7430 $x31283) $x51795 $x50680 (or $x883 $x5026 $x45181 $x47111) (or $x883 $x5026 $x16683 $x47111) (or $x883 $x37482 $x46890 $x47563 $x48810) (or $x889 $x2853 $x18865) (or $x883 $x39216 $x45090 $x47563 $x47636) $x85771 (or (<= (+ ?x369 S_2) (- 5.0)) $x883 $x16683) (or $x883 $x1264 $x16683 $x47111) (or $x320 $x1400 $x6188 $x7207 $x45181) $x85350 (or $x1636 $x45181 $x47446) (or $x883 $x46890 $x47546 $x47563 $x48658) (or $x7430 (<= (+ ?x2712 ?x1102 ?x1103 ?x1365 ?x2245) 0.0)) $x39008 (or $x883 $x37482 $x45090 $x47563 $x48810) (or $x883 $x37482 $x45181 $x47446) (or $x895 (<= (+ ?x357 L_0 S_3 ?x391 S_0) 0.0)) $x86635 (or $x1278 $x5026) (or $x1278 (<= (+ ?x357 A_1 ?x900 ?x473 ?x369 ?x1279 L_0) 0.0)) $x707 $x34 (<= (+ ?x900 L_0 S_0) 0.0) $x7508 (<= (+ ?x349 L_0 S_4) 0.0) (<= (+ ?x353 L_0 S_3) 0.0))))))))))))))))))))))))))))))))))))))))))))))))))))))))))))))))))))))))))))))))))))))))))))))))))))))))))))))))))))))
(check-sat)
